; PUSH cw_3 SLOAD PUSH cw_2 SWAP1 CALLER SWAP1 => PUSH cw_2 CALLER PUSH cw_3 SLOAD
(set-option :produce-proofs true)
; 
(set-info :status unknown)
(declare-fun storage_t ((_ BitVec 256) (_ BitVec 256) (_ BitVec 256) (_ BitVec 256) Int (_ BitVec 256)) (_ BitVec 256))
(declare-fun w_2 () (_ BitVec 256))
(declare-fun w_3 () (_ BitVec 256))
(declare-fun storage_s ((_ BitVec 256) (_ BitVec 256) (_ BitVec 256) (_ BitVec 256) Int (_ BitVec 256)) (_ BitVec 256))
(declare-fun exc_halt_t (Int) Bool)
(declare-fun exc_halt_s (Int) Bool)
(declare-fun sc_t (Int) (_ BitVec 6))
(declare-fun stack_t ((_ BitVec 256) (_ BitVec 256) (_ BitVec 256) (_ BitVec 256) Int (_ BitVec 6)) (_ BitVec 256))
(declare-fun stack_s ((_ BitVec 256) (_ BitVec 256) (_ BitVec 256) (_ BitVec 256) Int (_ BitVec 6)) (_ BitVec 256))
(declare-fun sc_s (Int) (_ BitVec 6))
(declare-fun used_gas_t ((_ BitVec 256) (_ BitVec 256) (_ BitVec 256) (_ BitVec 256) Int) Int)
(declare-fun used_gas_s ((_ BitVec 256) (_ BitVec 256) (_ BitVec 256) (_ BitVec 256) Int) Int)
(assert
 (exists ((x_SLOAD_0 (_ BitVec 256)) (x_CALLER (_ BitVec 256)) )(let (($x6589 (forall ((w (_ BitVec 256)) )(let ((?x10465 (storage_t x_SLOAD_0 w_3 w_2 x_CALLER 4 w)))
 (let ((?x7638 (storage_s x_SLOAD_0 w_3 w_2 x_CALLER 6 w)))
 (= ?x7638 ?x10465))))
 ))
 (let (($x3723 (exc_halt_t 4)))
 (let (($x772 (exc_halt_s 6)))
 (let (($x1357 (= $x772 $x3723)))
 (let (($x10051 (forall ((n (_ BitVec 6)) )(let ((?x3757 (sc_t 4)))
 (let (($x8252 (bvsle ?x3757 n)))
 (let ((?x4381 (stack_t x_SLOAD_0 w_3 w_2 x_CALLER 4 n)))
 (let ((?x7087 (stack_s x_SLOAD_0 w_3 w_2 x_CALLER 6 n)))
 (let (($x5668 (= ?x7087 ?x4381)))
 (or $x5668 $x8252)))))))
 ))
 (let ((?x3757 (sc_t 4)))
 (let ((?x926 (sc_s 6)))
 (let (($x5103 (= ?x926 ?x3757)))
 (let ((?x11788 (used_gas_t x_SLOAD_0 w_3 w_2 x_CALLER 0)))
 (let ((?x569 (used_gas_s x_SLOAD_0 w_3 w_2 x_CALLER 0)))
 (let (($x3903 (= ?x569 ?x11788)))
 (let (($x969 (forall ((w (_ BitVec 256)) )(let ((?x3023 (storage_t x_SLOAD_0 w_3 w_2 x_CALLER 0 w)))
 (let ((?x8476 (storage_s x_SLOAD_0 w_3 w_2 x_CALLER 0 w)))
 (= ?x8476 ?x3023))))
 ))
 (let (($x56 (exc_halt_t 0)))
 (let (($x57 (exc_halt_s 0)))
 (let (($x58 (= $x57 $x56)))
 (let (($x11785 (forall ((n (_ BitVec 6)) )(let ((?x63 (sc_t 0)))
 (let (($x4036 (bvsle ?x63 n)))
 (let ((?x8099 (stack_t x_SLOAD_0 w_3 w_2 x_CALLER 0 n)))
 (let ((?x1584 (stack_s x_SLOAD_0 w_3 w_2 x_CALLER 0 n)))
 (let (($x3197 (= ?x1584 ?x8099)))
 (or $x3197 $x4036)))))))
 ))
 (let ((?x63 (sc_t 0)))
 (let ((?x72 (sc_s 0)))
 (let (($x73 (= ?x72 ?x63)))
 (let (($x3775 (= $x3723 (or (exc_halt_t 3) (not (bvsle (_ bv0 6) (bvadd (_ bv63 6) (sc_t 3))))))))
 (let (($x8671 (forall ((w (_ BitVec 256)) )(let ((?x1429 (storage_t x_SLOAD_0 w_3 w_2 x_CALLER 3 w)))
 (let ((?x10465 (storage_t x_SLOAD_0 w_3 w_2 x_CALLER 4 w)))
 (= ?x10465 ?x1429))))
 ))
 (let (($x4237 (forall ((n (_ BitVec 6)) )(let ((?x6378 (sc_t 3)))
 (let ((?x8958 (bvadd (_ bv63 6) ?x6378)))
 (let (($x7546 (bvsle ?x8958 n)))
 (let ((?x2521 (stack_t x_SLOAD_0 w_3 w_2 x_CALLER 3 n)))
 (let ((?x4381 (stack_t x_SLOAD_0 w_3 w_2 x_CALLER 4 n)))
 (or (= ?x4381 ?x2521) $x7546)))))))
 ))
 (let ((?x6378 (sc_t 3)))
 (let (($x9328 (= ?x3757 ?x6378)))
 (let (($x4604 (= (used_gas_t x_SLOAD_0 w_3 w_2 x_CALLER 4) (+ 200 (used_gas_t x_SLOAD_0 w_3 w_2 x_CALLER 3)))))
 (let ((?x1100 (storage_t x_SLOAD_0 w_3 w_2 x_CALLER 3 (stack_t x_SLOAD_0 w_3 w_2 x_CALLER 3 (bvadd (_ bv63 6) ?x6378)))))
 (let (($x11478 (not (= ((_ extract 6 6) (bvadd (_ bv1 7) (concat (_ bv0 1) (sc_t 2)))) (_ bv0 1)))))
 (let (($x903 (exc_halt_t 2)))
 (let (($x8009 (exc_halt_t 3)))
 (let (($x2900 (forall ((w (_ BitVec 256)) )(let ((?x8075 (storage_t x_SLOAD_0 w_3 w_2 x_CALLER 2 w)))
 (let ((?x1429 (storage_t x_SLOAD_0 w_3 w_2 x_CALLER 3 w)))
 (= ?x1429 ?x8075))))
 ))
 (let (($x767 (forall ((n (_ BitVec 6)) )(let ((?x1571 (stack_t x_SLOAD_0 w_3 w_2 x_CALLER 2 n)))
 (let ((?x2521 (stack_t x_SLOAD_0 w_3 w_2 x_CALLER 3 n)))
 (let ((?x4056 (sc_t 2)))
 (let (($x1865 (bvsle ?x4056 n)))
 (or $x1865 (= ?x2521 ?x1571)))))))
 ))
 (let (($x8976 (= ?x6378 (bvadd (_ bv1 6) (sc_t 2)))))
 (let ((?x5081 (used_gas_t x_SLOAD_0 w_3 w_2 x_CALLER 3)))
 (let (($x10206 (not (= ((_ extract 6 6) (bvadd (_ bv1 7) (concat (_ bv0 1) (sc_t 1)))) (_ bv0 1)))))
 (let (($x1920 (exc_halt_t 1)))
 (let (($x8504 (= $x903 (or $x1920 $x10206))))
 (let (($x6357 (forall ((w (_ BitVec 256)) )(let ((?x2109 (storage_t x_SLOAD_0 w_3 w_2 x_CALLER 1 w)))
 (let ((?x8075 (storage_t x_SLOAD_0 w_3 w_2 x_CALLER 2 w)))
 (= ?x8075 ?x2109))))
 ))
 (let (($x11842 (forall ((n (_ BitVec 6)) )(let ((?x4023 (sc_t 1)))
 (let (($x10796 (bvsle ?x4023 n)))
 (let ((?x8169 (stack_t x_SLOAD_0 w_3 w_2 x_CALLER 1 n)))
 (let ((?x1571 (stack_t x_SLOAD_0 w_3 w_2 x_CALLER 2 n)))
 (or (= ?x1571 ?x8169) $x10796))))))
 ))
 (let ((?x4056 (sc_t 2)))
 (let (($x7668 (= ?x4056 (bvadd (_ bv1 6) (sc_t 1)))))
 (let ((?x10161 (used_gas_t x_SLOAD_0 w_3 w_2 x_CALLER 2)))
 (let (($x8425 (= $x1920 (or $x56 (not (= ((_ extract 6 6) (bvadd (_ bv1 7) (concat (_ bv0 1) ?x63))) (_ bv0 1)))))))
 (let (($x8562 (forall ((w (_ BitVec 256)) )(let ((?x3023 (storage_t x_SLOAD_0 w_3 w_2 x_CALLER 0 w)))
 (let ((?x2109 (storage_t x_SLOAD_0 w_3 w_2 x_CALLER 1 w)))
 (= ?x2109 ?x3023))))
 ))
 (let (($x2918 (forall ((n (_ BitVec 6)) )(let ((?x8099 (stack_t x_SLOAD_0 w_3 w_2 x_CALLER 0 n)))
 (let ((?x8169 (stack_t x_SLOAD_0 w_3 w_2 x_CALLER 1 n)))
 (let ((?x63 (sc_t 0)))
 (let (($x4036 (bvsle ?x63 n)))
 (or $x4036 (= ?x8169 ?x8099)))))))
 ))
 (let ((?x4023 (sc_t 1)))
 (let (($x7805 (= ?x4023 (bvadd (_ bv1 6) ?x63))))
 (let (($x2362 (= $x772 (or (exc_halt_s 5) (not (bvsle (_ bv0 6) (bvadd (_ bv62 6) (sc_s 5))))))))
 (let (($x5900 (forall ((w (_ BitVec 256)) )(let ((?x1820 (storage_s x_SLOAD_0 w_3 w_2 x_CALLER 5 w)))
 (let ((?x7638 (storage_s x_SLOAD_0 w_3 w_2 x_CALLER 6 w)))
 (= ?x7638 ?x1820))))
 ))
 (let (($x1512 (forall ((n (_ BitVec 6)) )(let ((?x805 (sc_s 5)))
 (let ((?x798 (bvadd (_ bv62 6) ?x805)))
 (let (($x10739 (bvsle ?x798 n)))
 (let ((?x6319 (stack_s x_SLOAD_0 w_3 w_2 x_CALLER 5 n)))
 (let ((?x7087 (stack_s x_SLOAD_0 w_3 w_2 x_CALLER 6 n)))
 (or (= ?x7087 ?x6319) $x10739)))))))
 ))
 (let ((?x805 (sc_s 5)))
 (let (($x421 (= ?x926 ?x805)))
 (let (($x2448 (= (used_gas_s x_SLOAD_0 w_3 w_2 x_CALLER 6) (+ 3 (used_gas_s x_SLOAD_0 w_3 w_2 x_CALLER 5)))))
 (let (($x6565 (= (stack_s x_SLOAD_0 w_3 w_2 x_CALLER 6 (bvadd (_ bv62 6) ?x926)) (stack_s x_SLOAD_0 w_3 w_2 x_CALLER 5 (bvadd (_ bv63 6) ?x805)))))
 (let (($x1620 (= (stack_s x_SLOAD_0 w_3 w_2 x_CALLER 6 (bvadd (_ bv63 6) ?x926)) (stack_s x_SLOAD_0 w_3 w_2 x_CALLER 5 (bvadd (_ bv62 6) ?x805)))))
 (let (($x2721 (not (= ((_ extract 6 6) (bvadd (_ bv1 7) (concat (_ bv0 1) (sc_s 4)))) (_ bv0 1)))))
 (let (($x64 (exc_halt_s 4)))
 (let (($x3979 (exc_halt_s 5)))
 (let (($x3210 (forall ((w (_ BitVec 256)) )(let ((?x2091 (storage_s x_SLOAD_0 w_3 w_2 x_CALLER 4 w)))
 (let ((?x1820 (storage_s x_SLOAD_0 w_3 w_2 x_CALLER 5 w)))
 (= ?x1820 ?x2091))))
 ))
 (let (($x5439 (forall ((n (_ BitVec 6)) )(let ((?x5213 (stack_s x_SLOAD_0 w_3 w_2 x_CALLER 4 n)))
 (let ((?x6319 (stack_s x_SLOAD_0 w_3 w_2 x_CALLER 5 n)))
 (or (= ?x6319 ?x5213) (bvsle (sc_s 4) n)))))
 ))
 (let (($x7084 (= ?x805 (bvadd (_ bv1 6) (sc_s 4)))))
 (let ((?x4145 (used_gas_s x_SLOAD_0 w_3 w_2 x_CALLER 5)))
 (let (($x8448 (= $x64 (or (exc_halt_s 3) (not (bvsle (_ bv0 6) (bvadd (_ bv62 6) (sc_s 3))))))))
 (let (($x5170 (forall ((w (_ BitVec 256)) )(let ((?x6737 (storage_s x_SLOAD_0 w_3 w_2 x_CALLER 3 w)))
 (let ((?x2091 (storage_s x_SLOAD_0 w_3 w_2 x_CALLER 4 w)))
 (= ?x2091 ?x6737))))
 ))
 (let (($x1338 (forall ((n (_ BitVec 6)) )(let ((?x1816 (stack_s x_SLOAD_0 w_3 w_2 x_CALLER 3 n)))
 (let ((?x5213 (stack_s x_SLOAD_0 w_3 w_2 x_CALLER 4 n)))
 (let ((?x275 (sc_s 3)))
 (let ((?x10770 (bvadd (_ bv62 6) ?x275)))
 (let (($x6326 (bvsle ?x10770 n)))
 (or $x6326 (= ?x5213 ?x1816))))))))
 ))
 (let ((?x275 (sc_s 3)))
 (let ((?x4305 (sc_s 4)))
 (let (($x2249 (= ?x4305 ?x275)))
 (let ((?x6510 (used_gas_s x_SLOAD_0 w_3 w_2 x_CALLER 4)))
 (let (($x7070 (= (stack_s x_SLOAD_0 w_3 w_2 x_CALLER 4 (bvadd (_ bv62 6) ?x4305)) (stack_s x_SLOAD_0 w_3 w_2 x_CALLER 3 (bvadd (_ bv63 6) ?x275)))))
 (let (($x7122 (= (stack_s x_SLOAD_0 w_3 w_2 x_CALLER 4 (bvadd (_ bv63 6) ?x4305)) (stack_s x_SLOAD_0 w_3 w_2 x_CALLER 3 (bvadd (_ bv62 6) ?x275)))))
 (let (($x247 (exc_halt_s 2)))
 (let (($x7270 (or $x247 (not (= ((_ extract 6 6) (bvadd (_ bv1 7) (concat (_ bv0 1) (sc_s 2)))) (_ bv0 1))))))
 (let (($x292 (exc_halt_s 3)))
 (let (($x5809 (= $x292 $x7270)))
 (let (($x8838 (forall ((w (_ BitVec 256)) )(let ((?x4492 (storage_s x_SLOAD_0 w_3 w_2 x_CALLER 2 w)))
 (let ((?x6737 (storage_s x_SLOAD_0 w_3 w_2 x_CALLER 3 w)))
 (= ?x6737 ?x4492))))
 ))
 (let (($x5826 (forall ((n (_ BitVec 6)) )(let ((?x218 (sc_s 2)))
 (let (($x10650 (bvsle ?x218 n)))
 (let ((?x5922 (stack_s x_SLOAD_0 w_3 w_2 x_CALLER 2 n)))
 (let ((?x1816 (stack_s x_SLOAD_0 w_3 w_2 x_CALLER 3 n)))
 (or (= ?x1816 ?x5922) $x10650))))))
 ))
 (let (($x7531 (= ?x275 (bvadd (_ bv1 6) (sc_s 2)))))
 (let ((?x9920 (used_gas_s x_SLOAD_0 w_3 w_2 x_CALLER 3)))
 (let (($x10747 (= $x247 (or (exc_halt_s 1) (not (bvsle (_ bv0 6) (bvadd (_ bv63 6) (sc_s 1))))))))
 (let (($x4657 (forall ((w (_ BitVec 256)) )(let ((?x1373 (storage_s x_SLOAD_0 w_3 w_2 x_CALLER 1 w)))
 (let ((?x4492 (storage_s x_SLOAD_0 w_3 w_2 x_CALLER 2 w)))
 (= ?x4492 ?x1373))))
 ))
 (let (($x6575 (forall ((n (_ BitVec 6)) )(let ((?x154 (sc_s 1)))
 (let ((?x1693 (bvadd (_ bv63 6) ?x154)))
 (let (($x7600 (bvsle ?x1693 n)))
 (let ((?x11811 (stack_s x_SLOAD_0 w_3 w_2 x_CALLER 1 n)))
 (let ((?x5922 (stack_s x_SLOAD_0 w_3 w_2 x_CALLER 2 n)))
 (or (= ?x5922 ?x11811) $x7600)))))))
 ))
 (let ((?x154 (sc_s 1)))
 (let ((?x218 (sc_s 2)))
 (let (($x2333 (= ?x218 ?x154)))
 (let ((?x4523 (used_gas_s x_SLOAD_0 w_3 w_2 x_CALLER 2)))
 (let ((?x4823 (storage_s x_SLOAD_0 w_3 w_2 x_CALLER 1 (stack_s x_SLOAD_0 w_3 w_2 x_CALLER 1 (bvadd (_ bv63 6) ?x154)))))
 (let (($x189 (exc_halt_s 1)))
 (let (($x4103 (= $x189 (or $x57 (not (= ((_ extract 6 6) (bvadd (_ bv1 7) (concat (_ bv0 1) ?x72))) (_ bv0 1)))))))
 (let (($x4160 (forall ((w (_ BitVec 256)) )(let ((?x8476 (storage_s x_SLOAD_0 w_3 w_2 x_CALLER 0 w)))
 (let ((?x1373 (storage_s x_SLOAD_0 w_3 w_2 x_CALLER 1 w)))
 (= ?x1373 ?x8476))))
 ))
 (let (($x524 (forall ((n (_ BitVec 6)) )(let ((?x72 (sc_s 0)))
 (let (($x2948 (bvsle ?x72 n)))
 (let ((?x1584 (stack_s x_SLOAD_0 w_3 w_2 x_CALLER 0 n)))
 (let ((?x11811 (stack_s x_SLOAD_0 w_3 w_2 x_CALLER 1 n)))
 (or (= ?x11811 ?x1584) $x2948))))))
 ))
 (let (($x6822 (= ?x154 (bvadd (_ bv1 6) ?x72))))
 (let (($x11317 (forall ((w (_ BitVec 256)) )(let (($x9813 (= w (stack_s x_SLOAD_0 w_3 w_2 x_CALLER 1 (bvadd (_ bv63 6) (sc_s 1))))))
 (let ((?x8476 (storage_s x_SLOAD_0 w_3 w_2 x_CALLER 0 w)))
 (= ?x8476 (ite $x9813 x_SLOAD_0 (_ bv0 256))))))
 ))
 (let (($x10165 (= ?x569 0)))
 (let (($x4562 (not $x57)))
 (let (($x136 (= ?x72 (_ bv0 6))))
 (and $x136 $x4562 $x10165 $x11317 (= (stack_s x_SLOAD_0 w_3 w_2 x_CALLER 1 ?x72) w_3) (= (used_gas_s x_SLOAD_0 w_3 w_2 x_CALLER 1) (+ 3 ?x569)) $x6822 $x524 $x4160 $x4103 (= (stack_s x_SLOAD_0 w_3 w_2 x_CALLER 2 (bvadd (_ bv63 6) ?x218)) ?x4823) (= ?x4523 (+ 200 (used_gas_s x_SLOAD_0 w_3 w_2 x_CALLER 1))) $x2333 $x6575 $x4657 $x10747 (= (stack_s x_SLOAD_0 w_3 w_2 x_CALLER 3 ?x218) w_2) (= ?x9920 (+ 3 ?x4523)) $x7531 $x5826 $x8838 $x5809 $x7122 $x7070 (= ?x6510 (+ 3 ?x9920)) $x2249 $x1338 $x5170 $x8448 (= (stack_s x_SLOAD_0 w_3 w_2 x_CALLER 5 ?x4305) x_CALLER) (= ?x4145 (+ 2 ?x6510)) $x7084 $x5439 $x3210 (= $x3979 (or $x64 $x2721)) $x1620 $x6565 $x2448 $x421 $x1512 $x5900 $x2362 (= (stack_t x_SLOAD_0 w_3 w_2 x_CALLER 1 ?x63) w_2) (= (used_gas_t x_SLOAD_0 w_3 w_2 x_CALLER 1) (+ 3 ?x11788)) $x7805 $x2918 $x8562 $x8425 (= (stack_t x_SLOAD_0 w_3 w_2 x_CALLER 2 ?x4023) x_CALLER) (= ?x10161 (+ 2 (used_gas_t x_SLOAD_0 w_3 w_2 x_CALLER 1))) $x7668 $x11842 $x6357 $x8504 (= (stack_t x_SLOAD_0 w_3 w_2 x_CALLER 3 ?x4056) w_3) (= ?x5081 (+ 3 ?x10161)) $x8976 $x767 $x2900 (= $x8009 (or $x903 $x11478)) (= (stack_t x_SLOAD_0 w_3 w_2 x_CALLER 4 (bvadd (_ bv63 6) ?x3757)) ?x1100) $x4604 $x9328 $x4237 $x8671 $x3775 $x73 $x11785 $x58 $x969 $x3903 (not (and $x5103 $x10051 $x1357 $x6589)))))))))))))))))))))))))))))))))))))))))))))))))))))))))))))))))))))))))))))))))))))))))))))))))))
 )
(check-sat)
(get-proof)
